(set-logic QF_S)
(declare-fun _var_0xINPUT_132888_() String)
(declare-fun __woorpje_diseq_pref0_() String)
(declare-fun __woorpje_diseq_suf_l0_() String)
(declare-fun __woorpje_diseq_suf_r0_() String)
(assert (=(str.++ _var_0xINPUT_132888_  "")(str.++ __woorpje_diseq_pref0_  "W" __woorpje_diseq_suf_l0_  "")) )
(assert (=(str.++  "AQG8bWMca5" "")(str.++ __woorpje_diseq_pref0_  "5" __woorpje_diseq_suf_r0_  "")) )
(check-sat)
